Minimize
  - 9 x(4) - 15 x(5) + x(6) - 5 x(7) + [ 12 x(4) * x(1) + 30 x(4) * x(3)
   + 32 x(4) * x(2) + 32 x(5) * x(2) + 12 x(5) * x(1) + 30 x(5) * x(3)
   ] / 2 
Subject To
 con1: x(1) + x(2) + x(3) == 1
 con2: x(5) + x(7) <= 200
 con3: x(4) + x(6) <= 100
 QCP_row_for_con4: - 1.5 x(5) + 0.5 x(7) + [ 3 x(5) * x(1) + x(5) * x(2) + x(5) * x(3) ] <= 0
 QCP_row_for_con5: - 2.5 x(4) - 0.5 x(6)  + [ 3 x(4) * x(1) + x(4) * x(2) + x(4) * x(3) ] <= 0
 QCP_row_for_con6: [ x(4) * x(3) + x(5) * x(3) ] <= 50
Bounds
 x(4) <= 100
 x(5) <= 200
 x(6) <= 100
 x(7) <= 200
 x(1) <= 1
 x(2) <= 1
 x(3) <= 1
End
